\ Model W5Q2
\ LP format - for model browsing. Use MPS format to capture full model detail.
Minimize
  0 C0 + 0 C1 + 0 C2 + 0 C3 + 0 C4 + 0 C5 + 75 C12 + 88 C13 + 103 C14
   + 56 C15 + 105 C16 + 76 C17 + 101 C18 + 85 C19 + 43 C20 + 80 C21
   + 95 C22 + 62 C23 + 75 C30 + 88 C31 + 103 C32 + 56 C33 + 105 C34
   + 76 C35 + 101 C36 + 85 C37 + 43 C38 + 80 C39 + 95 C40 + 62 C41 + 75 C48
   + 88 C49 + 103 C50 + 56 C51 + 105 C52 + 76 C53 + 101 C54 + 85 C55
   + 43 C56 + 80 C57 + 95 C58 + 62 C59 + 75 C66 + 88 C67 + 103 C68 + 56 C69
   + 105 C70 + 76 C71 + 101 C72 + 85 C73 + 43 C74 + 80 C75 + 95 C76
   + 62 C77
Subject To
 R0: C6 + C9 <= 1
 R1: C7 + C10 <= 1
 R2: C8 + C11 <= 1
 R3: C6 + C7 + C8 = 1
 R4: C9 + C10 + C11 = 1
 R5: C24 + C27 <= 1
 R6: C25 + C28 <= 1
 R7: C26 + C29 <= 1
 R8: C24 + C25 + C26 = 1
 R9: C27 + C28 + C29 = 1
 R10: - 1200 C24 - 1120 C27 + C30 + C31 + C32 + C33 <= 0
 R11: - 1200 C25 - 1120 C28 + C34 + C35 + C36 + C37 <= 0
 R12: - 1200 C26 - 1120 C29 + C38 + C39 + C40 + C41 <= 0
 R13: C30 + C34 + C38 >= 500
 R14: C31 + C35 + C39 >= 600
 R15: C32 + C36 + C40 >= 450
 R16: C33 + C37 + C41 >= 700
 R17: C42 + C45 <= 1
 R18: C43 + C46 <= 1
 R19: C44 + C47 <= 1
 R20: C42 + C43 + C44 = 1
 R21: C45 + C46 + C47 = 1
 R22: - 1200 C42 - 1120 C45 + C48 + C49 + C50 + C51 <= 0
 R23: - 1200 C43 - 1120 C46 + C52 + C53 + C54 + C55 <= 0
 R24: - 1200 C44 - 1120 C47 + C56 + C57 + C58 + C59 <= 0
 R25: C48 + C52 + C56 >= 500
 R26: C49 + C53 + C57 >= 600
 R27: C50 + C54 + C58 >= 450
 R28: C51 + C55 + C59 >= 700
 R29: C60 + C63 <= 1
 R30: C61 + C64 <= 1
 R31: C62 + C65 <= 1
 R32: C60 + C61 + C62 = 1
 R33: C63 + C64 + C65 = 1
 R34: - 1200 C60 - 1120 C63 + C66 + C67 + C68 + C69 <= 0
 R35: - 1200 C61 - 1120 C64 + C70 + C71 + C72 + C73 <= 0
 R36: - 1200 C62 - 1120 C65 + C74 + C75 + C76 + C77 <= 0
 R37: C66 + C70 + C74 >= 500
 R38: C67 + C71 + C75 >= 600
 R39: C68 + C72 + C76 >= 450
 R40: C69 + C73 + C77 >= 700
Bounds
Binaries
 C42 C43 C44 C45 C46 C47 C60 C61 C62 C63 C64 C65
End
